Minimize
  - 24 y_0 - 46 y_1 - 20 y_2 - 52 y_3 - 55 y_4 - 35 y_5 - 21 y_6 - 32 y_7
   - 53 y_8 - 40 y_9 - 40 y_10 - 42 y_11 - 52 y_12 - 34 y_13 - 39 y_14
   - 52 y_15 - 17 y_16 - 23 y_17 - 5 y_18 - 26 y_19 - 50 y_20 - 52 y_21
   - 20 y_22 - 41 y_23 - 27 y_24 - 67 y_25 - 41 y_26 - 46 y_27 - 49 y_28
   - 33 y_29 - 38 y_30 - 20 y_31 - 14 y_32 - 19 y_33 - 8 y_34 - 46 y_35
   - 41 y_36 - 38 y_37 - 10 y_38 - 43 y_39 - 49 y_40 - 45 y_41 - 61 y_42
   - 49 y_43 - 49 y_44 - 66 y_45 - 16 y_46 - 30 y_47 - 65 y_48 - 40 y_49
   - 36 y_50 - 40 y_51 - 62 y_52 - 16 y_53 - 40 y_54 - 52 y_55 - 39 y_56
   - 36 y_57 - 28 y_58 - 39 y_59 - 12 y_60 - 38 y_61 - 20 y_62 - 59 y_63
   - 62 y_64 - 46 y_65 - 42 y_66 - 50 y_67 - 7 y_68 - 37 y_69 - 62 y_70
   - 46 y_71 - 31 y_72 - 42 y_73 - 29 y_74 - 54 y_75 - 44 y_76 - 29 y_77
   - 36 y_78 - 41 y_79 - 11 y_80 - 23 y_81 - 27 y_82 - 62 y_83 - 36 y_84
   - 15 y_86 - 59 y_87 - 25 y_88 - 62 y_89 - 38 y_90 - 48 y_91 - 59 y_92
   - 55 y_93 - 43 y_94 - 15 y_95 - 38 y_96 - 53 y_97 - 29 y_98 - 38 y_99
   + 3792 Constant
Subject To
 c_0: y_59 = 1
 c_1_0: y_0 >= 1
 c_1_1: y_1 >= 1
 c_1_2: y_2 + y_62 >= 1
 c_1_3: y_3 >= 1
 c_1_4: y_4 + y_93 >= 1
 c_1_5: y_5 >= 1
 c_1_6: y_6 + y_62 >= 1
 c_1_7: y_7 >= 1
 c_1_8: y_8 + y_15 >= 1
 c_1_9: y_9 >= 1
 c_1_10: y_10 + y_54 + y_66 + y_73 + y_79 >= 1
 c_1_11: y_11 + y_36 >= 1
 c_1_12: y_12 + y_55 + y_97 >= 1
 c_1_13: y_13 >= 1
 c_1_14: y_14 + y_26 + y_96 + y_99 >= 1
 c_1_15: y_8 + y_15 >= 1
 c_1_16: y_16 >= 1
 c_1_17: y_17 >= 1
 c_1_18: y_18 + y_68 >= 1
 c_1_19: y_19 >= 1
 c_1_20: y_20 + y_28 >= 1
 c_1_21: y_21 >= 1
 c_1_22: y_22 >= 1
 c_1_23: y_23 + y_39 >= 1
 c_1_24: y_24 >= 1
 c_1_25: y_25 >= 1
 c_1_26: y_14 + y_26 >= 1
 c_1_27: y_27 >= 1
 c_1_28: y_20 + y_28 >= 1
 c_1_29: y_29 >= 1
 c_1_30: y_30 + y_57 >= 1
 c_1_31: y_31 >= 1
 c_1_32: y_32 >= 1
 c_1_33: y_33 >= 1
 c_1_34: y_34 + y_68 >= 1
 c_1_35: y_35 >= 1
 c_1_36: y_11 + y_36 >= 1
 c_1_37: y_37 + y_56 >= 1
 c_1_38: y_38 >= 1
 c_1_39: y_23 + y_39 >= 1
 c_1_40: y_40 + y_91 >= 1
 c_1_41: y_41 >= 1
 c_1_42: y_42 >= 1
 c_1_43: y_43 + y_67 >= 1
 c_1_44: y_44 >= 1
 c_1_45: y_45 >= 1
 c_1_46: y_46 + y_95 >= 1
 c_1_47: y_47 >= 1
 c_1_48: y_48 >= 1
 c_1_49: y_49 + y_54 + y_73 + y_90 + y_96 >= 1
 c_1_50: y_50 + y_61 >= 1
 c_1_51: y_51 >= 1
 c_1_52: y_52 + y_70 + y_89 >= 1
 c_1_53: y_53 + y_86 >= 1
 c_1_54: y_10 + y_49 + y_54 + y_73 + y_90 + y_96 >= 1
 c_1_55: y_12 + y_55 + y_97 >= 1
 c_1_56: y_37 + y_56 >= 1
 c_1_57: y_30 + y_57 + y_84 >= 1
 c_1_58: y_58 >= 1
 c_1_59: y_59 >= 1
 c_1_60: y_60 >= 1
 c_1_61: y_50 + y_61 >= 1
 c_1_62: y_2 + y_6 + y_62 >= 1
 c_1_63: y_63 + y_87 >= 1
 c_1_64: y_64 >= 1
 c_1_65: y_65 >= 1
 c_1_66: y_10 + y_66 + y_76 + y_79 >= 1
 c_1_67: y_43 + y_67 >= 1
 c_1_68: y_18 + y_34 + y_68 >= 1
 c_1_69: y_69 >= 1
 c_1_70: y_52 + y_70 + y_89 >= 1
 c_1_71: y_71 + y_76 >= 1
 c_1_72: y_72 >= 1
 c_1_73: y_10 + y_49 + y_54 + y_73 >= 1
 c_1_74: y_74 >= 1
 c_1_75: y_75 >= 1
 c_1_76: y_66 + y_71 + y_76 >= 1
 c_1_77: y_77 >= 1
 c_1_78: y_78 + y_99 >= 1
 c_1_79: y_10 + y_66 + y_79 >= 1
 c_1_80: y_80 >= 1
 c_1_81: y_81 >= 1
 c_1_82: y_82 >= 1
 c_1_83: y_83 >= 1
 c_1_84: y_57 + y_84 >= 1
 c_1_85: y_85 >= 1
 c_1_86: y_53 + y_86 >= 1
 c_1_87: y_63 + y_87 >= 1
 c_1_88: y_88 >= 1
 c_1_89: y_52 + y_70 + y_89 >= 1
 c_1_90: y_49 + y_54 + y_90 + y_96 >= 1
 c_1_91: y_40 + y_91 >= 1
 c_1_92: y_92 >= 1
 c_1_93: y_4 + y_93 >= 1
 c_1_94: y_94 >= 1
 c_1_95: y_46 + y_95 >= 1
 c_1_96: y_14 + y_49 + y_54 + y_90 + y_96 >= 1
 c_1_97: y_12 + y_55 + y_97 >= 1
 c_1_98: y_98 >= 1
 c_1_99: y_14 + y_78 + y_99 >= 1
Bounds
 Constant = 1
Binaries
 y_0 y_1 y_2 y_3 y_4 y_5 y_6 y_7 y_8 y_9 y_10 y_11 y_12 y_13 y_14 y_15 y_16
 y_17 y_18 y_19 y_20 y_21 y_22 y_23 y_24 y_25 y_26 y_27 y_28 y_29 y_30 y_31
 y_32 y_33 y_34 y_35 y_36 y_37 y_38 y_39 y_40 y_41 y_42 y_43 y_44 y_45 y_46
 y_47 y_48 y_49 y_50 y_51 y_52 y_53 y_54 y_55 y_56 y_57 y_58 y_59 y_60 y_61
 y_62 y_63 y_64 y_65 y_66 y_67 y_68 y_69 y_70 y_71 y_72 y_73 y_74 y_75 y_76
 y_77 y_78 y_79 y_80 y_81 y_82 y_83 y_84 y_85 y_86 y_87 y_88 y_89 y_90 y_91
 y_92 y_93 y_94 y_95 y_96 y_97 y_98 y_99
End
